p cnf 96 1536
4 7 11 16 22 29 37 46 56 67 79 92 106 121 137 154 0
8 12 17 23 30 38 47 57 68 80 93 107 122 138 155 173 0
13 18 24 31 39 48 58 69 81 94 108 123 139 156 174 193 0
19 25 32 40 49 59 70 82 95 109 124 140 157 175 194 214 0
26 33 41 50 60 71 83 96 110 125 141 158 176 195 215 236 0
34 42 51 61 72 84 97 111 126 142 159 177 196 216 237 259 0
-4 -8 0
-7 -12 0
-11 -17 0
-16 -23 0
-22 -30 0
-29 -38 0
-37 -47 0
-46 -57 0
-56 -68 0
-67 -80 0
-79 -93 0
-92 -107 0
-106 -122 0
-121 -138 0
-137 -155 0
-154 -173 0
-4 -13 0
-7 -18 0
-11 -24 0
-16 -31 0
-22 -39 0
-29 -48 0
-37 -58 0
-46 -69 0
-56 -81 0
-67 -94 0
-79 -108 0
-92 -123 0
-106 -139 0
-121 -156 0
-137 -174 0
-154 -193 0
-4 -19 0
-7 -25 0
-11 -32 0
-16 -40 0
-22 -49 0
-29 -59 0
-37 -70 0
-46 -82 0
-56 -95 0
-67 -109 0
-79 -124 0
-92 -140 0
-106 -157 0
-121 -175 0
-137 -194 0
-154 -214 0
-4 -26 0
-7 -33 0
-11 -41 0
-16 -50 0
-22 -60 0
-29 -71 0
-37 -83 0
-46 -96 0
-56 -110 0
-67 -125 0
-79 -141 0
-92 -158 0
-106 -176 0
-121 -195 0
-137 -215 0
-154 -236 0
-4 -34 0
-7 -42 0
-11 -51 0
-16 -61 0
-22 -72 0
-29 -84 0
-37 -97 0
-46 -111 0
-56 -126 0
-67 -142 0
-79 -159 0
-92 -177 0
-106 -196 0
-121 -216 0
-137 -237 0
-154 -259 0
-8 -13 0
-12 -18 0
-17 -24 0
-23 -31 0
-30 -39 0
-38 -48 0
-47 -58 0
-57 -69 0
-68 -81 0
-80 -94 0
-93 -108 0
-107 -123 0
-122 -139 0
-138 -156 0
-155 -174 0
-173 -193 0
-8 -19 0
-12 -25 0
-17 -32 0
-23 -40 0
-30 -49 0
-38 -59 0
-47 -70 0
-57 -82 0
-68 -95 0
-80 -109 0
-93 -124 0
-107 -140 0
-122 -157 0
-138 -175 0
-155 -194 0
-173 -214 0
-8 -26 0
-12 -33 0
-17 -41 0
-23 -50 0
-30 -60 0
-38 -71 0
-47 -83 0
-57 -96 0
-68 -110 0
-80 -125 0
-93 -141 0
-107 -158 0
-122 -176 0
-138 -195 0
-155 -215 0
-173 -236 0
-8 -34 0
-12 -42 0
-17 -51 0
-23 -61 0
-30 -72 0
-38 -84 0
-47 -97 0
-57 -111 0
-68 -126 0
-80 -142 0
-93 -159 0
-107 -177 0
-122 -196 0
-138 -216 0
-155 -237 0
-173 -259 0
-13 -19 0
-18 -25 0
-24 -32 0
-31 -40 0
-39 -49 0
-48 -59 0
-58 -70 0
-69 -82 0
-81 -95 0
-94 -109 0
-108 -124 0
-123 -140 0
-139 -157 0
-156 -175 0
-174 -194 0
-193 -214 0
-13 -26 0
-18 -33 0
-24 -41 0
-31 -50 0
-39 -60 0
-48 -71 0
-58 -83 0
-69 -96 0
-81 -110 0
-94 -125 0
-108 -141 0
-123 -158 0
-139 -176 0
-156 -195 0
-174 -215 0
-193 -236 0
-13 -34 0
-18 -42 0
-24 -51 0
-31 -61 0
-39 -72 0
-48 -84 0
-58 -97 0
-69 -111 0
-81 -126 0
-94 -142 0
-108 -159 0
-123 -177 0
-139 -196 0
-156 -216 0
-174 -237 0
-193 -259 0
-19 -26 0
-25 -33 0
-32 -41 0
-40 -50 0
-49 -60 0
-59 -71 0
-70 -83 0
-82 -96 0
-95 -110 0
-109 -125 0
-124 -141 0
-140 -158 0
-157 -176 0
-175 -195 0
-194 -215 0
-214 -236 0
-19 -34 0
-25 -42 0
-32 -51 0
-40 -61 0
-49 -72 0
-59 -84 0
-70 -97 0
-82 -111 0
-95 -126 0
-109 -142 0
-124 -159 0
-140 -177 0
-157 -196 0
-175 -216 0
-194 -237 0
-214 -259 0
-26 -34 0
-33 -42 0
-41 -51 0
-50 -61 0
-60 -72 0
-71 -84 0
-83 -97 0
-96 -111 0
-110 -126 0
-125 -142 0
-141 -159 0
-158 -177 0
-176 -196 0
-195 -216 0
-215 -237 0
-236 -259 0
-4 -12 0
-4 -173 0
-7 -23 0
-7 -38 0
-7 -57 0
-7 -107 0
-7 -138 0
-7 -155 0
-11 -68 0
-16 -57 0
-16 -93 0
-16 -107 0
-16 -155 0
-16 -173 0
-22 -57 0
-22 -68 0
-22 -80 0
-22 -93 0
-22 -107 0
-22 -138 0
-22 -155 0
-22 -173 0
-29 -47 0
-29 -80 0
-29 -155 0
-37 -107 0
-37 -122 0
-37 -155 0
-46 -138 0
-46 -155 0
-56 -107 0
-56 -122 0
-56 -155 0
-56 -173 0
-67 -122 0
-67 -138 0
-79 -122 0
-79 -138 0
-92 -122 0
-92 -155 0
-106 -138 0
-106 -155 0
-106 -173 0
-4 -18 0
-4 -193 0
-7 -31 0
-7 -48 0
-7 -69 0
-7 -123 0
-7 -156 0
-7 -174 0
-11 -81 0
-16 -69 0
-16 -108 0
-16 -123 0
-16 -174 0
-16 -193 0
-22 -69 0
-22 -81 0
-22 -94 0
-22 -108 0
-22 -123 0
-22 -156 0
-22 -174 0
-22 -193 0
-29 -58 0
-29 -94 0
-29 -174 0
-37 -123 0
-37 -139 0
-37 -174 0
-46 -156 0
-46 -174 0
-56 -123 0
-56 -139 0
-56 -174 0
-56 -193 0
-67 -139 0
-67 -156 0
-79 -139 0
-79 -156 0
-92 -139 0
-92 -174 0
-106 -156 0
-106 -174 0
-106 -193 0
-4 -25 0
-4 -214 0
-7 -40 0
-7 -59 0
-7 -82 0
-7 -140 0
-7 -175 0
-7 -194 0
-11 -95 0
-16 -82 0
-16 -124 0
-16 -140 0
-16 -194 0
-16 -214 0
-22 -82 0
-22 -95 0
-22 -109 0
-22 -124 0
-22 -140 0
-22 -175 0
-22 -194 0
-22 -214 0
-29 -70 0
-29 -109 0
-29 -194 0
-37 -140 0
-37 -157 0
-37 -194 0
-46 -175 0
-46 -194 0
-56 -140 0
-56 -157 0
-56 -194 0
-56 -214 0
-67 -157 0
-67 -175 0
-79 -157 0
-79 -175 0
-92 -157 0
-92 -194 0
-106 -175 0
-106 -194 0
-106 -214 0
-4 -33 0
-4 -236 0
-7 -50 0
-7 -71 0
-7 -96 0
-7 -158 0
-7 -195 0
-7 -215 0
-11 -110 0
-16 -96 0
-16 -141 0
-16 -158 0
-16 -215 0
-16 -236 0
-22 -96 0
-22 -110 0
-22 -125 0
-22 -141 0
-22 -158 0
-22 -195 0
-22 -215 0
-22 -236 0
-29 -83 0
-29 -125 0
-29 -215 0
-37 -158 0
-37 -176 0
-37 -215 0
-46 -195 0
-46 -215 0
-56 -158 0
-56 -176 0
-56 -215 0
-56 -236 0
-67 -176 0
-67 -195 0
-79 -176 0
-79 -195 0
-92 -176 0
-92 -215 0
-106 -195 0
-106 -215 0
-106 -236 0
-4 -42 0
-4 -259 0
-7 -61 0
-7 -84 0
-7 -111 0
-7 -177 0
-7 -216 0
-7 -237 0
-11 -126 0
-16 -111 0
-16 -159 0
-16 -177 0
-16 -237 0
-16 -259 0
-22 -111 0
-22 -126 0
-22 -142 0
-22 -159 0
-22 -177 0
-22 -216 0
-22 -237 0
-22 -259 0
-29 -97 0
-29 -142 0
-29 -237 0
-37 -177 0
-37 -196 0
-37 -237 0
-46 -216 0
-46 -237 0
-56 -177 0
-56 -196 0
-56 -237 0
-56 -259 0
-67 -196 0
-67 -216 0
-79 -196 0
-79 -216 0
-92 -196 0
-92 -237 0
-106 -216 0
-106 -237 0
-106 -259 0
-8 -7 0
-8 -154 0
-12 -16 0
-12 -29 0
-12 -46 0
-12 -92 0
-12 -121 0
-12 -137 0
-17 -56 0
-23 -46 0
-23 -79 0
-23 -92 0
-23 -137 0
-23 -154 0
-30 -46 0
-30 -56 0
-30 -67 0
-30 -79 0
-30 -92 0
-30 -121 0
-30 -137 0
-30 -154 0
-38 -37 0
-38 -67 0
-38 -137 0
-47 -92 0
-47 -106 0
-47 -137 0
-57 -121 0
-57 -137 0
-68 -92 0
-68 -106 0
-68 -137 0
-68 -154 0
-80 -106 0
-80 -121 0
-93 -106 0
-93 -121 0
-107 -106 0
-107 -137 0
-122 -121 0
-122 -137 0
-122 -154 0
-8 -18 0
-8 -193 0
-12 -31 0
-12 -48 0
-12 -69 0
-12 -123 0
-12 -156 0
-12 -174 0
-17 -81 0
-23 -69 0
-23 -108 0
-23 -123 0
-23 -174 0
-23 -193 0
-30 -69 0
-30 -81 0
-30 -94 0
-30 -108 0
-30 -123 0
-30 -156 0
-30 -174 0
-30 -193 0
-38 -58 0
-38 -94 0
-38 -174 0
-47 -123 0
-47 -139 0
-47 -174 0
-57 -156 0
-57 -174 0
-68 -123 0
-68 -139 0
-68 -174 0
-68 -193 0
-80 -139 0
-80 -156 0
-93 -139 0
-93 -156 0
-107 -139 0
-107 -174 0
-122 -156 0
-122 -174 0
-122 -193 0
-8 -25 0
-8 -214 0
-12 -40 0
-12 -59 0
-12 -82 0
-12 -140 0
-12 -175 0
-12 -194 0
-17 -95 0
-23 -82 0
-23 -124 0
-23 -140 0
-23 -194 0
-23 -214 0
-30 -82 0
-30 -95 0
-30 -109 0
-30 -124 0
-30 -140 0
-30 -175 0
-30 -194 0
-30 -214 0
-38 -70 0
-38 -109 0
-38 -194 0
-47 -140 0
-47 -157 0
-47 -194 0
-57 -175 0
-57 -194 0
-68 -140 0
-68 -157 0
-68 -194 0
-68 -214 0
-80 -157 0
-80 -175 0
-93 -157 0
-93 -175 0
-107 -157 0
-107 -194 0
-122 -175 0
-122 -194 0
-122 -214 0
-8 -33 0
-8 -236 0
-12 -50 0
-12 -71 0
-12 -96 0
-12 -158 0
-12 -195 0
-12 -215 0
-17 -110 0
-23 -96 0
-23 -141 0
-23 -158 0
-23 -215 0
-23 -236 0
-30 -96 0
-30 -110 0
-30 -125 0
-30 -141 0
-30 -158 0
-30 -195 0
-30 -215 0
-30 -236 0
-38 -83 0
-38 -125 0
-38 -215 0
-47 -158 0
-47 -176 0
-47 -215 0
-57 -195 0
-57 -215 0
-68 -158 0
-68 -176 0
-68 -215 0
-68 -236 0
-80 -176 0
-80 -195 0
-93 -176 0
-93 -195 0
-107 -176 0
-107 -215 0
-122 -195 0
-122 -215 0
-122 -236 0
-8 -42 0
-8 -259 0
-12 -61 0
-12 -84 0
-12 -111 0
-12 -177 0
-12 -216 0
-12 -237 0
-17 -126 0
-23 -111 0
-23 -159 0
-23 -177 0
-23 -237 0
-23 -259 0
-30 -111 0
-30 -126 0
-30 -142 0
-30 -159 0
-30 -177 0
-30 -216 0
-30 -237 0
-30 -259 0
-38 -97 0
-38 -142 0
-38 -237 0
-47 -177 0
-47 -196 0
-47 -237 0
-57 -216 0
-57 -237 0
-68 -177 0
-68 -196 0
-68 -237 0
-68 -259 0
-80 -196 0
-80 -216 0
-93 -196 0
-93 -216 0
-107 -196 0
-107 -237 0
-122 -216 0
-122 -237 0
-122 -259 0
-13 -7 0
-13 -154 0
-18 -16 0
-18 -29 0
-18 -46 0
-18 -92 0
-18 -121 0
-18 -137 0
-24 -56 0
-31 -46 0
-31 -79 0
-31 -92 0
-31 -137 0
-31 -154 0
-39 -46 0
-39 -56 0
-39 -67 0
-39 -79 0
-39 -92 0
-39 -121 0
-39 -137 0
-39 -154 0
-48 -37 0
-48 -67 0
-48 -137 0
-58 -92 0
-58 -106 0
-58 -137 0
-69 -121 0
-69 -137 0
-81 -92 0
-81 -106 0
-81 -137 0
-81 -154 0
-94 -106 0
-94 -121 0
-108 -106 0
-108 -121 0
-123 -106 0
-123 -137 0
-139 -121 0
-139 -137 0
-139 -154 0
-13 -12 0
-13 -173 0
-18 -23 0
-18 -38 0
-18 -57 0
-18 -107 0
-18 -138 0
-18 -155 0
-24 -68 0
-31 -57 0
-31 -93 0
-31 -107 0
-31 -155 0
-31 -173 0
-39 -57 0
-39 -68 0
-39 -80 0
-39 -93 0
-39 -107 0
-39 -138 0
-39 -155 0
-39 -173 0
-48 -47 0
-48 -80 0
-48 -155 0
-58 -107 0
-58 -122 0
-58 -155 0
-69 -138 0
-69 -155 0
-81 -107 0
-81 -122 0
-81 -155 0
-81 -173 0
-94 -122 0
-94 -138 0
-108 -122 0
-108 -138 0
-123 -122 0
-123 -155 0
-139 -138 0
-139 -155 0
-139 -173 0
-13 -25 0
-13 -214 0
-18 -40 0
-18 -59 0
-18 -82 0
-18 -140 0
-18 -175 0
-18 -194 0
-24 -95 0
-31 -82 0
-31 -124 0
-31 -140 0
-31 -194 0
-31 -214 0
-39 -82 0
-39 -95 0
-39 -109 0
-39 -124 0
-39 -140 0
-39 -175 0
-39 -194 0
-39 -214 0
-48 -70 0
-48 -109 0
-48 -194 0
-58 -140 0
-58 -157 0
-58 -194 0
-69 -175 0
-69 -194 0
-81 -140 0
-81 -157 0
-81 -194 0
-81 -214 0
-94 -157 0
-94 -175 0
-108 -157 0
-108 -175 0
-123 -157 0
-123 -194 0
-139 -175 0
-139 -194 0
-139 -214 0
-13 -33 0
-13 -236 0
-18 -50 0
-18 -71 0
-18 -96 0
-18 -158 0
-18 -195 0
-18 -215 0
-24 -110 0
-31 -96 0
-31 -141 0
-31 -158 0
-31 -215 0
-31 -236 0
-39 -96 0
-39 -110 0
-39 -125 0
-39 -141 0
-39 -158 0
-39 -195 0
-39 -215 0
-39 -236 0
-48 -83 0
-48 -125 0
-48 -215 0
-58 -158 0
-58 -176 0
-58 -215 0
-69 -195 0
-69 -215 0
-81 -158 0
-81 -176 0
-81 -215 0
-81 -236 0
-94 -176 0
-94 -195 0
-108 -176 0
-108 -195 0
-123 -176 0
-123 -215 0
-139 -195 0
-139 -215 0
-139 -236 0
-13 -42 0
-13 -259 0
-18 -61 0
-18 -84 0
-18 -111 0
-18 -177 0
-18 -216 0
-18 -237 0
-24 -126 0
-31 -111 0
-31 -159 0
-31 -177 0
-31 -237 0
-31 -259 0
-39 -111 0
-39 -126 0
-39 -142 0
-39 -159 0
-39 -177 0
-39 -216 0
-39 -237 0
-39 -259 0
-48 -97 0
-48 -142 0
-48 -237 0
-58 -177 0
-58 -196 0
-58 -237 0
-69 -216 0
-69 -237 0
-81 -177 0
-81 -196 0
-81 -237 0
-81 -259 0
-94 -196 0
-94 -216 0
-108 -196 0
-108 -216 0
-123 -196 0
-123 -237 0
-139 -216 0
-139 -237 0
-139 -259 0
-19 -7 0
-19 -154 0
-25 -16 0
-25 -29 0
-25 -46 0
-25 -92 0
-25 -121 0
-25 -137 0
-32 -56 0
-40 -46 0
-40 -79 0
-40 -92 0
-40 -137 0
-40 -154 0
-49 -46 0
-49 -56 0
-49 -67 0
-49 -79 0
-49 -92 0
-49 -121 0
-49 -137 0
-49 -154 0
-59 -37 0
-59 -67 0
-59 -137 0
-70 -92 0
-70 -106 0
-70 -137 0
-82 -121 0
-82 -137 0
-95 -92 0
-95 -106 0
-95 -137 0
-95 -154 0
-109 -106 0
-109 -121 0
-124 -106 0
-124 -121 0
-140 -106 0
-140 -137 0
-157 -121 0
-157 -137 0
-157 -154 0
-19 -12 0
-19 -173 0
-25 -23 0
-25 -38 0
-25 -57 0
-25 -107 0
-25 -138 0
-25 -155 0
-32 -68 0
-40 -57 0
-40 -93 0
-40 -107 0
-40 -155 0
-40 -173 0
-49 -57 0
-49 -68 0
-49 -80 0
-49 -93 0
-49 -107 0
-49 -138 0
-49 -155 0
-49 -173 0
-59 -47 0
-59 -80 0
-59 -155 0
-70 -107 0
-70 -122 0
-70 -155 0
-82 -138 0
-82 -155 0
-95 -107 0
-95 -122 0
-95 -155 0
-95 -173 0
-109 -122 0
-109 -138 0
-124 -122 0
-124 -138 0
-140 -122 0
-140 -155 0
-157 -138 0
-157 -155 0
-157 -173 0
-19 -18 0
-19 -193 0
-25 -31 0
-25 -48 0
-25 -69 0
-25 -123 0
-25 -156 0
-25 -174 0
-32 -81 0
-40 -69 0
-40 -108 0
-40 -123 0
-40 -174 0
-40 -193 0
-49 -69 0
-49 -81 0
-49 -94 0
-49 -108 0
-49 -123 0
-49 -156 0
-49 -174 0
-49 -193 0
-59 -58 0
-59 -94 0
-59 -174 0
-70 -123 0
-70 -139 0
-70 -174 0
-82 -156 0
-82 -174 0
-95 -123 0
-95 -139 0
-95 -174 0
-95 -193 0
-109 -139 0
-109 -156 0
-124 -139 0
-124 -156 0
-140 -139 0
-140 -174 0
-157 -156 0
-157 -174 0
-157 -193 0
-19 -33 0
-19 -236 0
-25 -50 0
-25 -71 0
-25 -96 0
-25 -158 0
-25 -195 0
-25 -215 0
-32 -110 0
-40 -96 0
-40 -141 0
-40 -158 0
-40 -215 0
-40 -236 0
-49 -96 0
-49 -110 0
-49 -125 0
-49 -141 0
-49 -158 0
-49 -195 0
-49 -215 0
-49 -236 0
-59 -83 0
-59 -125 0
-59 -215 0
-70 -158 0
-70 -176 0
-70 -215 0
-82 -195 0
-82 -215 0
-95 -158 0
-95 -176 0
-95 -215 0
-95 -236 0
-109 -176 0
-109 -195 0
-124 -176 0
-124 -195 0
-140 -176 0
-140 -215 0
-157 -195 0
-157 -215 0
-157 -236 0
-19 -42 0
-19 -259 0
-25 -61 0
-25 -84 0
-25 -111 0
-25 -177 0
-25 -216 0
-25 -237 0
-32 -126 0
-40 -111 0
-40 -159 0
-40 -177 0
-40 -237 0
-40 -259 0
-49 -111 0
-49 -126 0
-49 -142 0
-49 -159 0
-49 -177 0
-49 -216 0
-49 -237 0
-49 -259 0
-59 -97 0
-59 -142 0
-59 -237 0
-70 -177 0
-70 -196 0
-70 -237 0
-82 -216 0
-82 -237 0
-95 -177 0
-95 -196 0
-95 -237 0
-95 -259 0
-109 -196 0
-109 -216 0
-124 -196 0
-124 -216 0
-140 -196 0
-140 -237 0
-157 -216 0
-157 -237 0
-157 -259 0
-26 -7 0
-26 -154 0
-33 -16 0
-33 -29 0
-33 -46 0
-33 -92 0
-33 -121 0
-33 -137 0
-41 -56 0
-50 -46 0
-50 -79 0
-50 -92 0
-50 -137 0
-50 -154 0
-60 -46 0
-60 -56 0
-60 -67 0
-60 -79 0
-60 -92 0
-60 -121 0
-60 -137 0
-60 -154 0
-71 -37 0
-71 -67 0
-71 -137 0
-83 -92 0
-83 -106 0
-83 -137 0
-96 -121 0
-96 -137 0
-110 -92 0
-110 -106 0
-110 -137 0
-110 -154 0
-125 -106 0
-125 -121 0
-141 -106 0
-141 -121 0
-158 -106 0
-158 -137 0
-176 -121 0
-176 -137 0
-176 -154 0
-26 -12 0
-26 -173 0
-33 -23 0
-33 -38 0
-33 -57 0
-33 -107 0
-33 -138 0
-33 -155 0
-41 -68 0
-50 -57 0
-50 -93 0
-50 -107 0
-50 -155 0
-50 -173 0
-60 -57 0
-60 -68 0
-60 -80 0
-60 -93 0
-60 -107 0
-60 -138 0
-60 -155 0
-60 -173 0
-71 -47 0
-71 -80 0
-71 -155 0
-83 -107 0
-83 -122 0
-83 -155 0
-96 -138 0
-96 -155 0
-110 -107 0
-110 -122 0
-110 -155 0
-110 -173 0
-125 -122 0
-125 -138 0
-141 -122 0
-141 -138 0
-158 -122 0
-158 -155 0
-176 -138 0
-176 -155 0
-176 -173 0
-26 -18 0
-26 -193 0
-33 -31 0
-33 -48 0
-33 -69 0
-33 -123 0
-33 -156 0
-33 -174 0
-41 -81 0
-50 -69 0
-50 -108 0
-50 -123 0
-50 -174 0
-50 -193 0
-60 -69 0
-60 -81 0
-60 -94 0
-60 -108 0
-60 -123 0
-60 -156 0
-60 -174 0
-60 -193 0
-71 -58 0
-71 -94 0
-71 -174 0
-83 -123 0
-83 -139 0
-83 -174 0
-96 -156 0
-96 -174 0
-110 -123 0
-110 -139 0
-110 -174 0
-110 -193 0
-125 -139 0
-125 -156 0
-141 -139 0
-141 -156 0
-158 -139 0
-158 -174 0
-176 -156 0
-176 -174 0
-176 -193 0
-26 -25 0
-26 -214 0
-33 -40 0
-33 -59 0
-33 -82 0
-33 -140 0
-33 -175 0
-33 -194 0
-41 -95 0
-50 -82 0
-50 -124 0
-50 -140 0
-50 -194 0
-50 -214 0
-60 -82 0
-60 -95 0
-60 -109 0
-60 -124 0
-60 -140 0
-60 -175 0
-60 -194 0
-60 -214 0
-71 -70 0
-71 -109 0
-71 -194 0
-83 -140 0
-83 -157 0
-83 -194 0
-96 -175 0
-96 -194 0
-110 -140 0
-110 -157 0
-110 -194 0
-110 -214 0
-125 -157 0
-125 -175 0
-141 -157 0
-141 -175 0
-158 -157 0
-158 -194 0
-176 -175 0
-176 -194 0
-176 -214 0
-26 -42 0
-26 -259 0
-33 -61 0
-33 -84 0
-33 -111 0
-33 -177 0
-33 -216 0
-33 -237 0
-41 -126 0
-50 -111 0
-50 -159 0
-50 -177 0
-50 -237 0
-50 -259 0
-60 -111 0
-60 -126 0
-60 -142 0
-60 -159 0
-60 -177 0
-60 -216 0
-60 -237 0
-60 -259 0
-71 -97 0
-71 -142 0
-71 -237 0
-83 -177 0
-83 -196 0
-83 -237 0
-96 -216 0
-96 -237 0
-110 -177 0
-110 -196 0
-110 -237 0
-110 -259 0
-125 -196 0
-125 -216 0
-141 -196 0
-141 -216 0
-158 -196 0
-158 -237 0
-176 -216 0
-176 -237 0
-176 -259 0
-34 -7 0
-34 -154 0
-42 -16 0
-42 -29 0
-42 -46 0
-42 -92 0
-42 -121 0
-42 -137 0
-51 -56 0
-61 -46 0
-61 -79 0
-61 -92 0
-61 -137 0
-61 -154 0
-72 -46 0
-72 -56 0
-72 -67 0
-72 -79 0
-72 -92 0
-72 -121 0
-72 -137 0
-72 -154 0
-84 -37 0
-84 -67 0
-84 -137 0
-97 -92 0
-97 -106 0
-97 -137 0
-111 -121 0
-111 -137 0
-126 -92 0
-126 -106 0
-126 -137 0
-126 -154 0
-142 -106 0
-142 -121 0
-159 -106 0
-159 -121 0
-177 -106 0
-177 -137 0
-196 -121 0
-196 -137 0
-196 -154 0
-34 -12 0
-34 -173 0
-42 -23 0
-42 -38 0
-42 -57 0
-42 -107 0
-42 -138 0
-42 -155 0
-51 -68 0
-61 -57 0
-61 -93 0
-61 -107 0
-61 -155 0
-61 -173 0
-72 -57 0
-72 -68 0
-72 -80 0
-72 -93 0
-72 -107 0
-72 -138 0
-72 -155 0
-72 -173 0
-84 -47 0
-84 -80 0
-84 -155 0
-97 -107 0
-97 -122 0
-97 -155 0
-111 -138 0
-111 -155 0
-126 -107 0
-126 -122 0
-126 -155 0
-126 -173 0
-142 -122 0
-142 -138 0
-159 -122 0
-159 -138 0
-177 -122 0
-177 -155 0
-196 -138 0
-196 -155 0
-196 -173 0
-34 -18 0
-34 -193 0
-42 -31 0
-42 -48 0
-42 -69 0
-42 -123 0
-42 -156 0
-42 -174 0
-51 -81 0
-61 -69 0
-61 -108 0
-61 -123 0
-61 -174 0
-61 -193 0
-72 -69 0
-72 -81 0
-72 -94 0
-72 -108 0
-72 -123 0
-72 -156 0
-72 -174 0
-72 -193 0
-84 -58 0
-84 -94 0
-84 -174 0
-97 -123 0
-97 -139 0
-97 -174 0
-111 -156 0
-111 -174 0
-126 -123 0
-126 -139 0
-126 -174 0
-126 -193 0
-142 -139 0
-142 -156 0
-159 -139 0
-159 -156 0
-177 -139 0
-177 -174 0
-196 -156 0
-196 -174 0
-196 -193 0
-34 -25 0
-34 -214 0
-42 -40 0
-42 -59 0
-42 -82 0
-42 -140 0
-42 -175 0
-42 -194 0
-51 -95 0
-61 -82 0
-61 -124 0
-61 -140 0
-61 -194 0
-61 -214 0
-72 -82 0
-72 -95 0
-72 -109 0
-72 -124 0
-72 -140 0
-72 -175 0
-72 -194 0
-72 -214 0
-84 -70 0
-84 -109 0
-84 -194 0
-97 -140 0
-97 -157 0
-97 -194 0
-111 -175 0
-111 -194 0
-126 -140 0
-126 -157 0
-126 -194 0
-126 -214 0
-142 -157 0
-142 -175 0
-159 -157 0
-159 -175 0
-177 -157 0
-177 -194 0
-196 -175 0
-196 -194 0
-196 -214 0
-34 -33 0
-34 -236 0
-42 -50 0
-42 -71 0
-42 -96 0
-42 -158 0
-42 -195 0
-42 -215 0
-51 -110 0
-61 -96 0
-61 -141 0
-61 -158 0
-61 -215 0
-61 -236 0
-72 -96 0
-72 -110 0
-72 -125 0
-72 -141 0
-72 -158 0
-72 -195 0
-72 -215 0
-72 -236 0
-84 -83 0
-84 -125 0
-84 -215 0
-97 -158 0
-97 -176 0
-97 -215 0
-111 -195 0
-111 -215 0
-126 -158 0
-126 -176 0
-126 -215 0
-126 -236 0
-142 -176 0
-142 -195 0
-159 -176 0
-159 -195 0
-177 -176 0
-177 -215 0
-196 -195 0
-196 -215 0
-196 -236 0
